c seed 1445837731
c width 9
c scramble 1
c layers 1
c equalities 0
c ands 0
c xors3 1
c xors4 0
c layer[0] = [1..7] w=7 v=7 c=21 r=3.00 q=0
p cnf 7 25
-6 3 -2 0
-3 -1 6 -5 0
-7 2 1 0
-4 7 0
5 4 2 -7 0
2 -5 3 -4 0
7 -1 2 -5 0
-6 1 5 0
2 -5 -1 -3 -4 0
3 -6 1 0
-3 7 -4 1 0
-7 -2 0
-1 -5 -4 -3 0
1 5 6 0
1 -2 -5 3 4 0
-7 3 0
-1 -6 -3 5 -7 0
-6 3 0
7 -1 -2 5 -6 0
6 1 0
7 2 -6 0
7 2 -7 0
7 -2 7 0
-7 2 7 0
-7 -2 -7 0
